%Scalars
Students=80;
Disciplines=12;
Hospitals=5;
Duration=1;
Horizon=12;
Groups=2;
MaxDiscPerHosp=12;
%Data structures
DiscGroup = [1,1,1,1,1,2,2,2,2,2,2,2];

StudDiscGroup =[|
4, 6 |
5, 5 |
5, 5 |
2, 6 |
5, 5 |
4, 4 |
3, 4 |
3, 4 |
2, 3 |
5, 4 |
4, 4 |
1, 5 |
5, 5 |
3, 5 |
5, 5 |
4, 5 |
5, 5 |
3, 7 |
5, 3 |
5, 6 |
3, 5 |
4, 5 |
4, 4 |
5, 4 |
3, 3 |
4, 3 |
3, 4 |
4, 3 |
1, 4 |
4, 4 |
5, 5 |
3, 5 |
4, 4 |
4, 3 |
5, 3 |
5, 4 |
5, 5 |
5, 5 |
3, 4 |
3, 4 |
4, 4 |
5, 4 |
3, 5 |
5, 5 |
4, 4 |
5, 5 |
3, 2 |
3, 4 |
4, 6 |
2, 3 |
2, 6 |
4, 5 |
3, 4 |
4, 5 |
3, 5 |
5, 4 |
4, 6 |
2, 5 |
4, 4 |
5, 5 |
4, 4 |
2, 4 |
4, 6 |
4, 5 |
4, 6 |
3, 2 |
4, 4 |
4, 2 |
3, 3 |
4, 6 |
5, 5 |
4, 3 |
5, 5 |
4, 4 |
3, 3 |
3, 7 |
5, 5 |
3, 5 |
4, 6 |
3, 4 |];

AllowedDisc =[|
1, 1, 1, 0, 1, 1, 1, 1, 1, 1, 1, 1 |
1, 1, 1, 1, 1, 1, 1, 1, 0, 0, 1, 1 |
1, 1, 1, 1, 1, 1, 1, 1, 0, 1, 1, 1 |
0, 1, 1, 0, 0, 1, 1, 1, 1, 1, 1, 1 |
1, 1, 1, 1, 1, 1, 1, 1, 0, 0, 1, 1 |
1, 1, 1, 0, 1, 1, 0, 1, 0, 1, 1, 1 |
1, 1, 0, 0, 1, 1, 1, 1, 0, 0, 1, 1 |
1, 1, 0, 0, 1, 1, 1, 1, 1, 0, 0, 1 |
0, 1, 1, 0, 0, 1, 1, 1, 1, 1, 0, 1 |
1, 1, 1, 1, 1, 0, 1, 1, 1, 0, 1, 1 |
1, 1, 1, 0, 1, 1, 1, 1, 0, 1, 1, 1 |
1, 0, 0, 0, 0, 1, 1, 1, 0, 0, 1, 1 |
1, 1, 1, 1, 1, 1, 1, 1, 1, 0, 1, 1 |
1, 0, 1, 0, 1, 0, 1, 1, 1, 1, 1, 1 |
1, 1, 1, 1, 1, 0, 1, 1, 1, 0, 1, 1 |
1, 1, 1, 0, 1, 1, 1, 1, 1, 0, 0, 1 |
1, 1, 1, 1, 1, 1, 1, 1, 1, 1, 1, 1 |
1, 1, 1, 0, 0, 1, 1, 1, 1, 1, 1, 1 |
1, 1, 1, 1, 1, 1, 0, 1, 0, 1, 0, 1 |
1, 1, 1, 1, 1, 1, 1, 1, 1, 1, 1, 1 |
0, 1, 1, 0, 1, 1, 1, 1, 1, 0, 1, 1 |
1, 1, 1, 1, 0, 1, 1, 1, 1, 0, 1, 1 |
1, 1, 1, 1, 0, 0, 1, 1, 0, 0, 1, 1 |
1, 1, 1, 1, 1, 1, 1, 1, 0, 0, 1, 1 |
1, 0, 1, 0, 1, 1, 1, 0, 1, 1, 1, 1 |
1, 1, 1, 0, 1, 1, 0, 1, 1, 1, 0, 1 |
1, 1, 1, 0, 0, 1, 1, 1, 1, 0, 1, 0 |
1, 1, 1, 0, 1, 1, 0, 1, 0, 1, 0, 1 |
0, 0, 0, 0, 1, 1, 1, 1, 0, 0, 1, 0 |
1, 1, 1, 0, 1, 0, 1, 1, 0, 0, 1, 1 |
1, 1, 1, 1, 1, 0, 1, 1, 1, 1, 0, 1 |
1, 0, 1, 0, 1, 1, 1, 1, 1, 0, 1, 1 |
1, 1, 1, 1, 0, 1, 0, 1, 1, 1, 1, 1 |
1, 1, 0, 1, 1, 1, 0, 1, 0, 0, 1, 0 |
1, 1, 1, 1, 1, 0, 0, 1, 0, 0, 1, 1 |
1, 1, 1, 1, 1, 1, 1, 1, 0, 1, 1, 1 |
1, 1, 1, 1, 1, 1, 1, 1, 1, 1, 0, 0 |
1, 1, 1, 1, 1, 1, 1, 1, 0, 0, 1, 1 |
0, 1, 1, 0, 1, 1, 1, 1, 1, 0, 0, 1 |
1, 1, 1, 0, 0, 1, 1, 1, 0, 0, 1, 0 |
1, 1, 1, 0, 1, 1, 1, 1, 1, 1, 1, 1 |
1, 1, 1, 1, 1, 1, 1, 1, 0, 0, 1, 1 |
1, 0, 1, 0, 1, 1, 1, 1, 0, 1, 1, 1 |
1, 1, 1, 1, 1, 1, 1, 1, 1, 1, 1, 1 |
1, 1, 1, 0, 1, 1, 1, 0, 0, 0, 1, 1 |
1, 1, 1, 1, 1, 1, 1, 1, 1, 0, 1, 0 |
1, 0, 1, 0, 1, 0, 1, 1, 0, 0, 1, 1 |
1, 0, 1, 0, 1, 1, 0, 1, 1, 0, 1, 1 |
1, 1, 1, 0, 1, 1, 1, 1, 1, 0, 1, 1 |
0, 0, 1, 0, 1, 1, 0, 1, 0, 1, 1, 1 |
1, 0, 1, 0, 0, 1, 1, 1, 1, 0, 1, 1 |
1, 1, 1, 0, 1, 1, 1, 1, 0, 0, 1, 1 |
1, 1, 1, 0, 0, 1, 0, 1, 1, 0, 1, 1 |
1, 1, 1, 1, 0, 1, 1, 1, 1, 1, 1, 0 |
1, 1, 0, 0, 1, 1, 1, 1, 1, 1, 1, 1 |
1, 1, 1, 1, 1, 1, 1, 1, 1, 1, 1, 1 |
1, 1, 1, 1, 0, 1, 1, 1, 1, 1, 1, 1 |
0, 0, 1, 0, 1, 1, 1, 1, 1, 1, 1, 1 |
1, 1, 1, 0, 1, 1, 0, 1, 0, 0, 1, 1 |
1, 1, 1, 1, 1, 1, 1, 1, 1, 1, 1, 1 |
1, 1, 1, 0, 1, 1, 1, 1, 0, 1, 1, 1 |
0, 1, 0, 0, 1, 1, 1, 0, 0, 0, 1, 1 |
1, 1, 1, 1, 0, 1, 1, 1, 1, 1, 1, 1 |
1, 1, 1, 0, 1, 1, 1, 1, 1, 1, 1, 1 |
1, 1, 1, 0, 1, 1, 1, 1, 1, 1, 1, 1 |
0, 1, 1, 0, 1, 1, 0, 1, 1, 0, 1, 0 |
1, 1, 1, 0, 1, 1, 1, 1, 1, 0, 1, 1 |
1, 1, 1, 0, 1, 1, 0, 1, 0, 1, 0, 1 |
1, 0, 1, 0, 1, 0, 1, 1, 1, 1, 0, 1 |
1, 1, 1, 1, 0, 1, 1, 1, 1, 1, 1, 1 |
1, 1, 1, 1, 1, 1, 1, 1, 0, 0, 1, 1 |
1, 1, 1, 0, 1, 1, 1, 0, 1, 1, 1, 1 |
1, 1, 1, 1, 1, 0, 1, 1, 1, 0, 1, 1 |
1, 1, 1, 0, 1, 1, 1, 1, 1, 0, 1, 0 |
0, 1, 1, 0, 1, 0, 1, 1, 0, 1, 1, 1 |
1, 0, 1, 0, 1, 1, 1, 1, 1, 1, 1, 1 |
1, 1, 1, 1, 1, 1, 1, 1, 1, 1, 1, 1 |
1, 1, 1, 0, 0, 1, 1, 1, 0, 0, 1, 1 |
1, 1, 1, 1, 0, 1, 1, 1, 1, 0, 1, 1 |
1, 1, 1, 0, 0, 1, 0, 1, 0, 0, 1, 1 |];

Precededby =[|
0, 0, 0, 0, 0, 0, 0, 0, 0, 0, 0, 0 |
0, 0, 0, 0, 0, 0, 0, 0, 0, 0, 0, 0 |
0, 0, 0, 0, 0, 0, 0, 0, 0, 0, 0, 0 |
1, 1, 0, 0, 0, 0, 0, 0, 0, 0, 0, 0 |
0, 0, 0, 0, 0, 0, 0, 0, 0, 0, 0, 0 |
0, 0, 0, 0, 0, 0, 0, 0, 0, 0, 0, 0 |
0, 0, 0, 0, 0, 0, 0, 0, 0, 0, 0, 0 |
0, 0, 0, 0, 0, 0, 0, 0, 0, 0, 0, 0 |
0, 0, 0, 0, 0, 0, 1, 1, 0, 0, 0, 0 |
0, 0, 0, 0, 0, 0, 1, 1, 1, 0, 0, 0 |
0, 0, 0, 0, 0, 0, 0, 0, 0, 0, 0, 0 |
0, 0, 0, 0, 0, 0, 0, 0, 0, 0, 0, 0 |];

Availability =[|
1, 1, 1, 1, 1, 1, 1, 1, 1, 1, 0, 0 |
1, 1, 1, 1, 1, 1, 1, 1, 1, 1, 0, 0 |
1, 1, 1, 1, 1, 1, 1, 1, 1, 1, 1, 1 |
1, 1, 1, 1, 1, 1, 1, 1, 0, 0, 0, 0 |
1, 1, 1, 1, 1, 1, 1, 1, 1, 1, 0, 0 |
1, 1, 1, 1, 1, 1, 1, 1, 0, 0, 0, 0 |
1, 1, 1, 1, 1, 1, 1, 0, 0, 0, 0, 0 |
1, 1, 1, 1, 1, 1, 1, 0, 0, 0, 0, 0 |
1, 1, 1, 1, 1, 1, 0, 0, 0, 0, 1, 1 |
1, 1, 1, 1, 1, 1, 1, 1, 1, 1, 1, 0 |
1, 1, 1, 1, 1, 1, 1, 1, 0, 0, 0, 0 |
1, 1, 1, 1, 1, 1, 0, 0, 0, 0, 1, 0 |
1, 1, 1, 1, 1, 1, 1, 1, 1, 1, 1, 1 |
1, 1, 1, 1, 1, 1, 1, 1, 1, 1, 0, 0 |
1, 1, 1, 1, 1, 1, 1, 1, 1, 1, 1, 1 |
1, 1, 1, 1, 1, 1, 1, 1, 1, 1, 1, 0 |
1, 1, 1, 1, 1, 1, 1, 1, 1, 1, 1, 1 |
1, 1, 1, 1, 1, 1, 1, 1, 1, 1, 0, 0 |
1, 1, 1, 1, 1, 1, 1, 1, 0, 0, 0, 0 |
1, 1, 1, 1, 1, 1, 1, 1, 1, 1, 1, 0 |
1, 1, 1, 1, 1, 1, 1, 1, 0, 0, 0, 0 |
1, 1, 1, 1, 1, 1, 1, 1, 1, 0, 0, 0 |
1, 1, 1, 1, 1, 1, 1, 1, 0, 0, 0, 1 |
1, 1, 1, 1, 1, 1, 1, 1, 1, 0, 0, 0 |
1, 1, 1, 1, 1, 1, 0, 0, 0, 0, 0, 0 |
1, 1, 1, 1, 1, 1, 1, 0, 0, 0, 1, 1 |
1, 1, 1, 1, 1, 1, 1, 1, 1, 1, 1, 0 |
1, 1, 1, 1, 1, 1, 1, 0, 0, 0, 0, 0 |
1, 1, 1, 1, 1, 1, 0, 0, 1, 0, 0, 0 |
1, 1, 1, 1, 1, 1, 1, 1, 0, 0, 0, 0 |
1, 1, 1, 1, 1, 1, 1, 1, 1, 1, 0, 0 |
1, 1, 1, 1, 1, 1, 1, 1, 0, 0, 1, 0 |
1, 1, 1, 1, 1, 1, 1, 1, 0, 0, 0, 1 |
1, 1, 1, 1, 1, 1, 1, 0, 0, 1, 0, 0 |
1, 1, 1, 1, 1, 1, 1, 1, 0, 0, 0, 1 |
1, 1, 1, 1, 1, 1, 1, 1, 1, 0, 0, 0 |
1, 1, 1, 1, 1, 1, 1, 1, 1, 1, 0, 0 |
1, 1, 1, 1, 1, 1, 1, 1, 1, 1, 0, 0 |
1, 1, 1, 1, 1, 1, 1, 0, 0, 0, 0, 1 |
1, 1, 1, 1, 1, 1, 1, 0, 0, 0, 0, 0 |
1, 1, 1, 1, 1, 1, 1, 1, 0, 0, 0, 1 |
1, 1, 1, 1, 1, 1, 1, 1, 1, 0, 0, 0 |
1, 1, 1, 1, 1, 1, 1, 1, 0, 0, 0, 1 |
1, 1, 1, 1, 1, 1, 1, 1, 1, 1, 1, 1 |
1, 1, 1, 1, 1, 1, 1, 1, 0, 0, 0, 0 |
1, 1, 1, 1, 1, 1, 1, 1, 1, 1, 0, 0 |
1, 1, 1, 1, 1, 1, 1, 1, 0, 0, 0, 0 |
1, 1, 1, 1, 1, 1, 1, 0, 0, 1, 0, 0 |
1, 1, 1, 1, 1, 1, 1, 1, 1, 1, 0, 0 |
1, 1, 1, 1, 1, 1, 1, 1, 0, 0, 0, 1 |
1, 1, 1, 1, 1, 1, 1, 1, 0, 0, 0, 0 |
1, 1, 1, 1, 1, 1, 1, 1, 1, 1, 1, 0 |
1, 1, 1, 1, 1, 1, 1, 0, 0, 0, 1, 0 |
1, 1, 1, 1, 1, 1, 1, 1, 1, 1, 1, 0 |
1, 1, 1, 1, 1, 1, 1, 1, 0, 0, 0, 1 |
1, 1, 1, 1, 1, 1, 1, 1, 1, 0, 0, 0 |
1, 1, 1, 1, 1, 1, 1, 1, 1, 1, 1, 1 |
1, 1, 1, 1, 1, 1, 1, 0, 0, 0, 1, 1 |
1, 1, 1, 1, 1, 1, 1, 1, 0, 0, 0, 0 |
1, 1, 1, 1, 1, 1, 1, 1, 1, 1, 0, 0 |
1, 1, 1, 1, 1, 1, 1, 1, 0, 0, 0, 0 |
1, 1, 1, 1, 1, 1, 0, 0, 0, 0, 0, 0 |
1, 1, 1, 1, 1, 1, 1, 1, 1, 1, 0, 0 |
1, 1, 1, 1, 1, 1, 1, 1, 1, 1, 1, 0 |
1, 1, 1, 1, 1, 1, 1, 1, 1, 1, 0, 0 |
1, 1, 1, 1, 1, 1, 0, 0, 0, 0, 0, 0 |
1, 1, 1, 1, 1, 1, 1, 1, 1, 1, 1, 1 |
1, 1, 1, 1, 1, 1, 1, 1, 0, 0, 1, 0 |
1, 1, 1, 1, 1, 1, 0, 0, 0, 0, 1, 1 |
1, 1, 1, 1, 1, 1, 1, 1, 1, 1, 0, 0 |
1, 1, 1, 1, 1, 1, 1, 1, 1, 1, 0, 0 |
1, 1, 1, 1, 1, 1, 1, 0, 0, 0, 0, 0 |
1, 1, 1, 1, 1, 1, 1, 1, 1, 1, 0, 0 |
1, 1, 1, 1, 1, 1, 1, 1, 0, 0, 1, 0 |
1, 1, 1, 1, 1, 1, 0, 0, 0, 0, 0, 1 |
1, 1, 1, 1, 1, 1, 1, 1, 1, 1, 0, 0 |
1, 1, 1, 1, 1, 1, 1, 1, 1, 1, 0, 0 |
1, 1, 1, 1, 1, 1, 1, 1, 0, 0, 0, 0 |
1, 1, 1, 1, 1, 1, 1, 1, 1, 1, 1, 1 |
1, 1, 1, 1, 1, 1, 1, 0, 0, 0, 0, 0 |];

Ability =
 array3d(1..Students,1..Hospitals,1..Disciplines,[
1, 1, 1, 1, 1, 1, 1, 1, 1, 1, 1, 1 ,
1, 1, 1, 1, 1, 1, 1, 1, 1, 1, 1, 1 ,
1, 1, 1, 1, 1, 1, 1, 1, 1, 1, 1, 1 ,
1, 1, 1, 1, 1, 1, 1, 1, 1, 1, 1, 1 ,
1, 1, 1, 1, 1, 1, 1, 1, 1, 1, 1, 1 ,
1, 1, 1, 1, 1, 1, 1, 1, 1, 1, 1, 1 ,
1, 1, 1, 1, 1, 1, 1, 1, 1, 1, 1, 1 ,
1, 1, 1, 1, 1, 1, 1, 1, 1, 1, 1, 1 ,
1, 1, 1, 1, 1, 1, 1, 1, 1, 1, 1, 1 ,
1, 1, 1, 1, 1, 1, 1, 1, 1, 1, 1, 1 ,
1, 1, 1, 1, 1, 1, 1, 1, 1, 1, 1, 1 ,
1, 1, 1, 1, 1, 1, 1, 1, 1, 1, 1, 1 ,
1, 1, 1, 1, 1, 1, 1, 1, 1, 1, 1, 1 ,
1, 1, 1, 1, 1, 1, 1, 1, 1, 1, 1, 1 ,
1, 1, 1, 1, 1, 1, 1, 1, 1, 1, 1, 1 ,
1, 1, 1, 1, 1, 1, 1, 1, 1, 1, 1, 1 ,
1, 1, 1, 1, 1, 1, 1, 1, 1, 1, 1, 1 ,
1, 1, 1, 1, 1, 1, 1, 1, 1, 1, 1, 1 ,
1, 1, 1, 1, 1, 1, 1, 1, 1, 1, 1, 1 ,
1, 1, 1, 1, 1, 1, 1, 1, 1, 1, 1, 1 ,
1, 1, 1, 1, 1, 1, 1, 1, 1, 1, 1, 1 ,
1, 1, 1, 1, 1, 1, 1, 1, 1, 1, 1, 1 ,
1, 1, 1, 1, 1, 1, 1, 1, 1, 1, 1, 1 ,
1, 1, 1, 1, 1, 1, 1, 1, 1, 1, 1, 1 ,
1, 1, 1, 1, 1, 1, 1, 1, 1, 1, 1, 1 ,
1, 1, 1, 1, 1, 1, 1, 1, 1, 1, 1, 1 ,
1, 1, 1, 1, 1, 1, 1, 1, 1, 1, 1, 1 ,
1, 1, 1, 1, 1, 1, 1, 1, 1, 1, 1, 1 ,
1, 1, 1, 1, 1, 1, 1, 1, 1, 1, 1, 1 ,
1, 1, 1, 1, 1, 1, 1, 1, 1, 1, 1, 1 ,
1, 1, 1, 1, 1, 1, 1, 1, 1, 1, 1, 1 ,
1, 1, 1, 1, 1, 1, 1, 1, 1, 1, 1, 1 ,
1, 1, 1, 1, 1, 1, 1, 1, 1, 1, 1, 1 ,
1, 1, 1, 1, 1, 1, 1, 1, 1, 1, 1, 1 ,
1, 1, 1, 1, 1, 1, 1, 1, 1, 1, 1, 1 ,
1, 1, 1, 1, 1, 1, 1, 1, 1, 1, 1, 1 ,
1, 1, 1, 1, 1, 1, 1, 1, 1, 1, 1, 1 ,
1, 1, 1, 1, 1, 1, 1, 1, 1, 1, 1, 1 ,
1, 1, 1, 1, 1, 1, 1, 1, 1, 1, 1, 1 ,
1, 1, 1, 1, 1, 1, 1, 1, 1, 1, 1, 1 ,
1, 1, 1, 1, 1, 1, 1, 1, 1, 1, 1, 1 ,
1, 1, 1, 1, 1, 1, 1, 1, 1, 1, 1, 1 ,
1, 1, 1, 1, 1, 1, 1, 1, 1, 1, 1, 1 ,
1, 1, 1, 1, 1, 1, 1, 1, 1, 1, 1, 1 ,
1, 1, 1, 1, 1, 1, 1, 1, 1, 1, 1, 1 ,
1, 1, 1, 1, 1, 1, 1, 1, 1, 1, 1, 1 ,
1, 1, 1, 1, 1, 1, 1, 1, 1, 1, 1, 1 ,
1, 1, 1, 1, 1, 1, 1, 1, 1, 1, 1, 1 ,
1, 1, 1, 1, 1, 1, 1, 1, 1, 1, 1, 1 ,
1, 1, 1, 1, 1, 1, 1, 1, 1, 1, 1, 1 ,
1, 1, 1, 1, 1, 1, 1, 1, 1, 1, 1, 1 ,
1, 1, 1, 1, 1, 1, 1, 1, 1, 1, 1, 1 ,
1, 1, 1, 1, 1, 1, 1, 1, 1, 1, 1, 1 ,
1, 1, 1, 1, 1, 1, 1, 1, 1, 1, 1, 1 ,
1, 1, 1, 1, 1, 1, 1, 1, 1, 1, 1, 1 ,
1, 1, 1, 1, 1, 1, 1, 1, 1, 1, 1, 1 ,
1, 1, 1, 1, 1, 1, 1, 1, 1, 1, 1, 1 ,
1, 1, 1, 1, 1, 1, 1, 1, 1, 1, 1, 1 ,
1, 1, 1, 1, 1, 1, 1, 1, 1, 1, 1, 1 ,
1, 1, 1, 1, 1, 1, 1, 1, 1, 1, 1, 1 ,
1, 1, 1, 1, 1, 1, 1, 1, 1, 1, 1, 1 ,
1, 1, 1, 1, 1, 1, 1, 1, 1, 1, 1, 1 ,
1, 1, 1, 1, 1, 1, 1, 1, 1, 1, 1, 1 ,
1, 1, 1, 1, 1, 1, 1, 1, 1, 1, 1, 1 ,
1, 1, 1, 1, 1, 1, 1, 1, 1, 1, 1, 1 ,
1, 1, 1, 1, 1, 1, 1, 1, 1, 1, 1, 1 ,
1, 1, 1, 1, 1, 1, 1, 1, 1, 1, 1, 1 ,
1, 1, 1, 1, 1, 1, 1, 1, 1, 1, 1, 1 ,
1, 1, 1, 1, 1, 1, 1, 1, 1, 1, 1, 1 ,
1, 1, 1, 1, 1, 1, 1, 1, 1, 1, 1, 1 ,
1, 1, 1, 1, 1, 1, 1, 1, 1, 1, 1, 1 ,
1, 1, 1, 1, 1, 1, 1, 1, 1, 1, 1, 1 ,
1, 1, 1, 1, 1, 1, 1, 1, 1, 1, 1, 1 ,
1, 1, 1, 1, 1, 1, 1, 1, 1, 1, 1, 1 ,
1, 1, 1, 1, 1, 1, 1, 1, 1, 1, 1, 1 ,
1, 1, 1, 1, 1, 1, 1, 1, 1, 1, 1, 1 ,
1, 1, 1, 1, 1, 1, 1, 1, 1, 1, 1, 1 ,
1, 1, 1, 1, 1, 1, 1, 1, 1, 1, 1, 1 ,
1, 1, 1, 1, 1, 1, 1, 1, 1, 1, 1, 1 ,
1, 1, 1, 1, 1, 1, 1, 1, 1, 1, 1, 1 ,
1, 1, 1, 1, 1, 1, 1, 1, 1, 1, 1, 1 ,
1, 1, 1, 1, 1, 1, 1, 1, 1, 1, 1, 1 ,
1, 1, 1, 1, 1, 1, 1, 1, 1, 1, 1, 1 ,
1, 1, 1, 1, 1, 1, 1, 1, 1, 1, 1, 1 ,
1, 1, 1, 1, 1, 1, 1, 1, 1, 1, 1, 1 ,
1, 1, 1, 1, 1, 1, 1, 1, 1, 1, 1, 1 ,
1, 1, 1, 1, 1, 1, 1, 1, 1, 1, 1, 1 ,
1, 1, 1, 1, 1, 1, 1, 1, 1, 1, 1, 1 ,
1, 1, 1, 1, 1, 1, 1, 1, 1, 1, 1, 1 ,
1, 1, 1, 1, 1, 1, 1, 1, 1, 1, 1, 1 ,
1, 1, 1, 1, 1, 1, 1, 1, 1, 1, 1, 1 ,
1, 1, 1, 1, 1, 1, 1, 1, 1, 1, 1, 1 ,
1, 1, 1, 1, 1, 1, 1, 1, 1, 1, 1, 1 ,
1, 1, 1, 1, 1, 1, 1, 1, 1, 1, 1, 1 ,
1, 1, 1, 1, 1, 1, 1, 1, 1, 1, 1, 1 ,
1, 1, 1, 1, 1, 1, 1, 1, 1, 1, 1, 1 ,
1, 1, 1, 1, 1, 1, 1, 1, 1, 1, 1, 1 ,
1, 1, 1, 1, 1, 1, 1, 1, 1, 1, 1, 1 ,
1, 1, 1, 1, 1, 1, 1, 1, 1, 1, 1, 1 ,
1, 1, 1, 1, 1, 1, 1, 1, 1, 1, 1, 1 ,
1, 1, 1, 1, 1, 1, 1, 1, 1, 1, 1, 1 ,
1, 1, 1, 1, 1, 1, 1, 1, 1, 1, 1, 1 ,
1, 1, 1, 1, 1, 1, 1, 1, 1, 1, 1, 1 ,
1, 1, 1, 1, 1, 1, 1, 1, 1, 1, 1, 1 ,
1, 1, 1, 1, 1, 1, 1, 1, 1, 1, 1, 1 ,
1, 1, 1, 1, 1, 1, 1, 1, 1, 1, 1, 1 ,
1, 1, 1, 1, 1, 1, 1, 1, 1, 1, 1, 1 ,
1, 1, 1, 1, 1, 1, 1, 1, 1, 1, 1, 1 ,
1, 1, 1, 1, 1, 1, 1, 1, 1, 1, 1, 1 ,
1, 1, 1, 1, 1, 1, 1, 1, 1, 1, 1, 1 ,
1, 1, 1, 1, 1, 1, 1, 1, 1, 1, 1, 1 ,
1, 1, 1, 1, 1, 1, 1, 1, 1, 1, 1, 1 ,
1, 1, 1, 1, 1, 1, 1, 1, 1, 1, 1, 1 ,
1, 1, 1, 1, 1, 1, 1, 1, 1, 1, 1, 1 ,
1, 1, 1, 1, 1, 1, 1, 1, 1, 1, 1, 1 ,
1, 1, 1, 1, 1, 1, 1, 1, 1, 1, 1, 1 ,
1, 1, 1, 1, 1, 1, 1, 1, 1, 1, 1, 1 ,
1, 1, 1, 1, 1, 1, 1, 1, 1, 1, 1, 1 ,
1, 1, 1, 1, 1, 1, 1, 1, 1, 1, 1, 1 ,
1, 1, 1, 1, 1, 1, 1, 1, 1, 1, 1, 1 ,
1, 1, 1, 1, 1, 1, 1, 1, 1, 1, 1, 1 ,
1, 1, 1, 1, 1, 1, 1, 1, 1, 1, 1, 1 ,
1, 1, 1, 1, 1, 1, 1, 1, 1, 1, 1, 1 ,
1, 1, 1, 1, 1, 1, 1, 1, 1, 1, 1, 1 ,
1, 1, 1, 1, 1, 1, 1, 1, 1, 1, 1, 1 ,
1, 1, 1, 1, 1, 1, 1, 1, 1, 1, 1, 1 ,
1, 1, 1, 1, 1, 1, 1, 1, 1, 1, 1, 1 ,
1, 1, 1, 1, 1, 1, 1, 1, 1, 1, 1, 1 ,
1, 1, 1, 1, 1, 1, 1, 1, 1, 1, 1, 1 ,
1, 1, 1, 1, 1, 1, 1, 1, 1, 1, 1, 1 ,
1, 1, 1, 1, 1, 1, 1, 1, 1, 1, 1, 1 ,
1, 1, 1, 1, 1, 1, 1, 1, 1, 1, 1, 1 ,
1, 1, 1, 1, 1, 1, 1, 1, 1, 1, 1, 1 ,
1, 1, 1, 1, 1, 1, 1, 1, 1, 1, 1, 1 ,
1, 1, 1, 1, 1, 1, 1, 1, 1, 1, 1, 1 ,
1, 1, 1, 1, 1, 1, 1, 1, 1, 1, 1, 1 ,
1, 1, 1, 1, 1, 1, 1, 1, 1, 1, 1, 1 ,
1, 1, 1, 1, 1, 1, 1, 1, 1, 1, 1, 1 ,
1, 1, 1, 1, 1, 1, 1, 1, 1, 1, 1, 1 ,
1, 1, 1, 1, 1, 1, 1, 1, 1, 1, 1, 1 ,
1, 1, 1, 1, 1, 1, 1, 1, 1, 1, 1, 1 ,
1, 1, 1, 1, 1, 1, 1, 1, 1, 1, 1, 1 ,
1, 1, 1, 1, 1, 1, 1, 1, 1, 1, 1, 1 ,
1, 1, 1, 1, 1, 1, 1, 1, 1, 1, 1, 1 ,
1, 1, 1, 1, 1, 1, 1, 1, 1, 1, 1, 1 ,
1, 1, 1, 1, 1, 1, 1, 1, 1, 1, 1, 1 ,
1, 1, 1, 1, 1, 1, 1, 1, 1, 1, 1, 1 ,
1, 1, 1, 1, 1, 1, 1, 1, 1, 1, 1, 1 ,
1, 1, 1, 1, 1, 1, 1, 1, 1, 1, 1, 1 ,
1, 1, 1, 1, 1, 1, 1, 1, 1, 1, 1, 1 ,
1, 1, 1, 1, 1, 1, 1, 1, 1, 1, 1, 1 ,
1, 1, 1, 1, 1, 1, 1, 1, 1, 1, 1, 1 ,
1, 1, 1, 1, 1, 1, 1, 1, 1, 1, 1, 1 ,
1, 1, 1, 1, 1, 1, 1, 1, 1, 1, 1, 1 ,
1, 1, 1, 1, 1, 1, 1, 1, 1, 1, 1, 1 ,
1, 1, 1, 1, 1, 1, 1, 1, 1, 1, 1, 1 ,
1, 1, 1, 1, 1, 1, 1, 1, 1, 1, 1, 1 ,
1, 1, 1, 1, 1, 1, 1, 1, 1, 1, 1, 1 ,
1, 1, 1, 1, 1, 1, 1, 1, 1, 1, 1, 1 ,
1, 1, 1, 1, 1, 1, 1, 1, 1, 1, 1, 1 ,
1, 1, 1, 1, 1, 1, 1, 1, 1, 1, 1, 1 ,
1, 1, 1, 1, 1, 1, 1, 1, 1, 1, 1, 1 ,
1, 1, 1, 1, 1, 1, 1, 1, 1, 1, 1, 1 ,
1, 1, 1, 1, 1, 1, 1, 1, 1, 1, 1, 1 ,
1, 1, 1, 1, 1, 1, 1, 1, 1, 1, 1, 1 ,
1, 1, 1, 1, 1, 1, 1, 1, 1, 1, 1, 1 ,
1, 1, 1, 1, 1, 1, 1, 1, 1, 1, 1, 1 ,
1, 1, 1, 1, 1, 1, 1, 1, 1, 1, 1, 1 ,
1, 1, 1, 1, 1, 1, 1, 1, 1, 1, 1, 1 ,
1, 1, 1, 1, 1, 1, 1, 1, 1, 1, 1, 1 ,
1, 1, 1, 1, 1, 1, 1, 1, 1, 1, 1, 1 ,
1, 1, 1, 1, 1, 1, 1, 1, 1, 1, 1, 1 ,
1, 1, 1, 1, 1, 1, 1, 1, 1, 1, 1, 1 ,
1, 1, 1, 1, 1, 1, 1, 1, 1, 1, 1, 1 ,
1, 1, 1, 1, 1, 1, 1, 1, 1, 1, 1, 1 ,
1, 1, 1, 1, 1, 1, 1, 1, 1, 1, 1, 1 ,
1, 1, 1, 1, 1, 1, 1, 1, 1, 1, 1, 1 ,
1, 1, 1, 1, 1, 1, 1, 1, 1, 1, 1, 1 ,
1, 1, 1, 1, 1, 1, 1, 1, 1, 1, 1, 1 ,
1, 1, 1, 1, 1, 1, 1, 1, 1, 1, 1, 1 ,
1, 1, 1, 1, 1, 1, 1, 1, 1, 1, 1, 1 ,
1, 1, 1, 1, 1, 1, 1, 1, 1, 1, 1, 1 ,
1, 1, 1, 1, 1, 1, 1, 1, 1, 1, 1, 1 ,
1, 1, 1, 1, 1, 1, 1, 1, 1, 1, 1, 1 ,
1, 1, 1, 1, 1, 1, 1, 1, 1, 1, 1, 1 ,
1, 1, 1, 1, 1, 1, 1, 1, 1, 1, 1, 1 ,
1, 1, 1, 1, 1, 1, 1, 1, 1, 1, 1, 1 ,
1, 1, 1, 1, 1, 1, 1, 1, 1, 1, 1, 1 ,
1, 1, 1, 1, 1, 1, 1, 1, 1, 1, 1, 1 ,
1, 1, 1, 1, 1, 1, 1, 1, 1, 1, 1, 1 ,
1, 1, 1, 1, 1, 1, 1, 1, 1, 1, 1, 1 ,
1, 1, 1, 1, 1, 1, 1, 1, 1, 1, 1, 1 ,
1, 1, 1, 1, 1, 1, 1, 1, 1, 1, 1, 1 ,
1, 1, 1, 1, 1, 1, 1, 1, 1, 1, 1, 1 ,
1, 1, 1, 1, 1, 1, 1, 1, 1, 1, 1, 1 ,
1, 1, 1, 1, 1, 1, 1, 1, 1, 1, 1, 1 ,
1, 1, 1, 1, 1, 1, 1, 1, 1, 1, 1, 1 ,
1, 1, 1, 1, 1, 1, 1, 1, 1, 1, 1, 1 ,
1, 1, 1, 1, 1, 1, 1, 1, 1, 1, 1, 1 ,
1, 1, 1, 1, 1, 1, 1, 1, 1, 1, 1, 1 ,
1, 1, 1, 1, 1, 1, 1, 1, 1, 1, 1, 1 ,
1, 1, 1, 1, 1, 1, 1, 1, 1, 1, 1, 1 ,
1, 1, 1, 1, 1, 1, 1, 1, 1, 1, 1, 1 ,
1, 1, 1, 1, 1, 1, 1, 1, 1, 1, 1, 1 ,
1, 1, 1, 1, 1, 1, 1, 1, 1, 1, 1, 1 ,
1, 1, 1, 1, 1, 1, 1, 1, 1, 1, 1, 1 ,
1, 1, 1, 1, 1, 1, 1, 1, 1, 1, 1, 1 ,
1, 1, 1, 1, 1, 1, 1, 1, 1, 1, 1, 1 ,
1, 1, 1, 1, 1, 1, 1, 1, 1, 1, 1, 1 ,
1, 1, 1, 1, 1, 1, 1, 1, 1, 1, 1, 1 ,
1, 1, 1, 1, 1, 1, 1, 1, 1, 1, 1, 1 ,
1, 1, 1, 1, 1, 1, 1, 1, 1, 1, 1, 1 ,
1, 1, 1, 1, 1, 1, 1, 1, 1, 1, 1, 1 ,
1, 1, 1, 1, 1, 1, 1, 1, 1, 1, 1, 1 ,
1, 1, 1, 1, 1, 1, 1, 1, 1, 1, 1, 1 ,
1, 1, 1, 1, 1, 1, 1, 1, 1, 1, 1, 1 ,
1, 1, 1, 1, 1, 1, 1, 1, 1, 1, 1, 1 ,
1, 1, 1, 1, 1, 1, 1, 1, 1, 1, 1, 1 ,
1, 1, 1, 1, 1, 1, 1, 1, 1, 1, 1, 1 ,
1, 1, 1, 1, 1, 1, 1, 1, 1, 1, 1, 1 ,
1, 1, 1, 1, 1, 1, 1, 1, 1, 1, 1, 1 ,
1, 1, 1, 1, 1, 1, 1, 1, 1, 1, 1, 1 ,
1, 1, 1, 1, 1, 1, 1, 1, 1, 1, 1, 1 ,
1, 1, 1, 1, 1, 1, 1, 1, 1, 1, 1, 1 ,
1, 1, 1, 1, 1, 1, 1, 1, 1, 1, 1, 1 ,
1, 1, 1, 1, 1, 1, 1, 1, 1, 1, 1, 1 ,
1, 1, 1, 1, 1, 1, 1, 1, 1, 1, 1, 1 ,
1, 1, 1, 1, 1, 1, 1, 1, 1, 1, 1, 1 ,
1, 1, 1, 1, 1, 1, 1, 1, 1, 1, 1, 1 ,
1, 1, 1, 1, 1, 1, 1, 1, 1, 1, 1, 1 ,
1, 1, 1, 1, 1, 1, 1, 1, 1, 1, 1, 1 ,
1, 1, 1, 1, 1, 1, 1, 1, 1, 1, 1, 1 ,
1, 1, 1, 1, 1, 1, 1, 1, 1, 1, 1, 1 ,
1, 1, 1, 1, 1, 1, 1, 1, 1, 1, 1, 1 ,
1, 1, 1, 1, 1, 1, 1, 1, 1, 1, 1, 1 ,
1, 1, 1, 1, 1, 1, 1, 1, 1, 1, 1, 1 ,
1, 1, 1, 1, 1, 1, 1, 1, 1, 1, 1, 1 ,
1, 1, 1, 1, 1, 1, 1, 1, 1, 1, 1, 1 ,
1, 1, 1, 1, 1, 1, 1, 1, 1, 1, 1, 1 ,
1, 1, 1, 1, 1, 1, 1, 1, 1, 1, 1, 1 ,
1, 1, 1, 1, 1, 1, 1, 1, 1, 1, 1, 1 ,
1, 1, 1, 1, 1, 1, 1, 1, 1, 1, 1, 1 ,
1, 1, 1, 1, 1, 1, 1, 1, 1, 1, 1, 1 ,
1, 1, 1, 1, 1, 1, 1, 1, 1, 1, 1, 1 ,
1, 1, 1, 1, 1, 1, 1, 1, 1, 1, 1, 1 ,
1, 1, 1, 1, 1, 1, 1, 1, 1, 1, 1, 1 ,
1, 1, 1, 1, 1, 1, 1, 1, 1, 1, 1, 1 ,
1, 1, 1, 1, 1, 1, 1, 1, 1, 1, 1, 1 ,
1, 1, 1, 1, 1, 1, 1, 1, 1, 1, 1, 1 ,
1, 1, 1, 1, 1, 1, 1, 1, 1, 1, 1, 1 ,
1, 1, 1, 1, 1, 1, 1, 1, 1, 1, 1, 1 ,
1, 1, 1, 1, 1, 1, 1, 1, 1, 1, 1, 1 ,
1, 1, 1, 1, 1, 1, 1, 1, 1, 1, 1, 1 ,
1, 1, 1, 1, 1, 1, 1, 1, 1, 1, 1, 1 ,
1, 1, 1, 1, 1, 1, 1, 1, 1, 1, 1, 1 ,
1, 1, 1, 1, 1, 1, 1, 1, 1, 1, 1, 1 ,
1, 1, 1, 1, 1, 1, 1, 1, 1, 1, 1, 1 ,
1, 1, 1, 1, 1, 1, 1, 1, 1, 1, 1, 1 ,
1, 1, 1, 1, 1, 1, 1, 1, 1, 1, 1, 1 ,
1, 1, 1, 1, 1, 1, 1, 1, 1, 1, 1, 1 ,
1, 1, 1, 1, 1, 1, 1, 1, 1, 1, 1, 1 ,
1, 1, 1, 1, 1, 1, 1, 1, 1, 1, 1, 1 ,
1, 1, 1, 1, 1, 1, 1, 1, 1, 1, 1, 1 ,
1, 1, 1, 1, 1, 1, 1, 1, 1, 1, 1, 1 ,
1, 1, 1, 1, 1, 1, 1, 1, 1, 1, 1, 1 ,
1, 1, 1, 1, 1, 1, 1, 1, 1, 1, 1, 1 ,
1, 1, 1, 1, 1, 1, 1, 1, 1, 1, 1, 1 ,
1, 1, 1, 1, 1, 1, 1, 1, 1, 1, 1, 1 ,
1, 1, 1, 1, 1, 1, 1, 1, 1, 1, 1, 1 ,
1, 1, 1, 1, 1, 1, 1, 1, 1, 1, 1, 1 ,
1, 1, 1, 1, 1, 1, 1, 1, 1, 1, 1, 1 ,
1, 1, 1, 1, 1, 1, 1, 1, 1, 1, 1, 1 ,
1, 1, 1, 1, 1, 1, 1, 1, 1, 1, 1, 1 ,
1, 1, 1, 1, 1, 1, 1, 1, 1, 1, 1, 1 ,
1, 1, 1, 1, 1, 1, 1, 1, 1, 1, 1, 1 ,
1, 1, 1, 1, 1, 1, 1, 1, 1, 1, 1, 1 ,
1, 1, 1, 1, 1, 1, 1, 1, 1, 1, 1, 1 ,
1, 1, 1, 1, 1, 1, 1, 1, 1, 1, 1, 1 ,
1, 1, 1, 1, 1, 1, 1, 1, 1, 1, 1, 1 ,
1, 1, 1, 1, 1, 1, 1, 1, 1, 1, 1, 1 ,
1, 1, 1, 1, 1, 1, 1, 1, 1, 1, 1, 1 ,
1, 1, 1, 1, 1, 1, 1, 1, 1, 1, 1, 1 ,
1, 1, 1, 1, 1, 1, 1, 1, 1, 1, 1, 1 ,
1, 1, 1, 1, 1, 1, 1, 1, 1, 1, 1, 1 ,
1, 1, 1, 1, 1, 1, 1, 1, 1, 1, 1, 1 ,
1, 1, 1, 1, 1, 1, 1, 1, 1, 1, 1, 1 ,
1, 1, 1, 1, 1, 1, 1, 1, 1, 1, 1, 1 ,
1, 1, 1, 1, 1, 1, 1, 1, 1, 1, 1, 1 ,
1, 1, 1, 1, 1, 1, 1, 1, 1, 1, 1, 1 ,
1, 1, 1, 1, 1, 1, 1, 1, 1, 1, 1, 1 ,
1, 1, 1, 1, 1, 1, 1, 1, 1, 1, 1, 1 ,
1, 1, 1, 1, 1, 1, 1, 1, 1, 1, 1, 1 ,
1, 1, 1, 1, 1, 1, 1, 1, 1, 1, 1, 1 ,
1, 1, 1, 1, 1, 1, 1, 1, 1, 1, 1, 1 ,
1, 1, 1, 1, 1, 1, 1, 1, 1, 1, 1, 1 ,
1, 1, 1, 1, 1, 1, 1, 1, 1, 1, 1, 1 ,
1, 1, 1, 1, 1, 1, 1, 1, 1, 1, 1, 1 ,
1, 1, 1, 1, 1, 1, 1, 1, 1, 1, 1, 1 ,
1, 1, 1, 1, 1, 1, 1, 1, 1, 1, 1, 1 ,
1, 1, 1, 1, 1, 1, 1, 1, 1, 1, 1, 1 ,
1, 1, 1, 1, 1, 1, 1, 1, 1, 1, 1, 1 ,
1, 1, 1, 1, 1, 1, 1, 1, 1, 1, 1, 1 ,
1, 1, 1, 1, 1, 1, 1, 1, 1, 1, 1, 1 ,
1, 1, 1, 1, 1, 1, 1, 1, 1, 1, 1, 1 ,
1, 1, 1, 1, 1, 1, 1, 1, 1, 1, 1, 1 ,
1, 1, 1, 1, 1, 1, 1, 1, 1, 1, 1, 1 ,
1, 1, 1, 1, 1, 1, 1, 1, 1, 1, 1, 1 ,
1, 1, 1, 1, 1, 1, 1, 1, 1, 1, 1, 1 ,
1, 1, 1, 1, 1, 1, 1, 1, 1, 1, 1, 1 ,
1, 1, 1, 1, 1, 1, 1, 1, 1, 1, 1, 1 ,
1, 1, 1, 1, 1, 1, 1, 1, 1, 1, 1, 1 ,
1, 1, 1, 1, 1, 1, 1, 1, 1, 1, 1, 1 ,
1, 1, 1, 1, 1, 1, 1, 1, 1, 1, 1, 1 ,
1, 1, 1, 1, 1, 1, 1, 1, 1, 1, 1, 1 ,
1, 1, 1, 1, 1, 1, 1, 1, 1, 1, 1, 1 ,
1, 1, 1, 1, 1, 1, 1, 1, 1, 1, 1, 1 ,
1, 1, 1, 1, 1, 1, 1, 1, 1, 1, 1, 1 ,
1, 1, 1, 1, 1, 1, 1, 1, 1, 1, 1, 1 ,
1, 1, 1, 1, 1, 1, 1, 1, 1, 1, 1, 1 ,
1, 1, 1, 1, 1, 1, 1, 1, 1, 1, 1, 1 ,
1, 1, 1, 1, 1, 1, 1, 1, 1, 1, 1, 1 ,
1, 1, 1, 1, 1, 1, 1, 1, 1, 1, 1, 1 ,
1, 1, 1, 1, 1, 1, 1, 1, 1, 1, 1, 1 ,
1, 1, 1, 1, 1, 1, 1, 1, 1, 1, 1, 1 ,
1, 1, 1, 1, 1, 1, 1, 1, 1, 1, 1, 1 ,
1, 1, 1, 1, 1, 1, 1, 1, 1, 1, 1, 1 ,
1, 1, 1, 1, 1, 1, 1, 1, 1, 1, 1, 1 ,
1, 1, 1, 1, 1, 1, 1, 1, 1, 1, 1, 1 ,
1, 1, 1, 1, 1, 1, 1, 1, 1, 1, 1, 1 ,
1, 1, 1, 1, 1, 1, 1, 1, 1, 1, 1, 1 ,
1, 1, 1, 1, 1, 1, 1, 1, 1, 1, 1, 1 ,
1, 1, 1, 1, 1, 1, 1, 1, 1, 1, 1, 1 ,
1, 1, 1, 1, 1, 1, 1, 1, 1, 1, 1, 1 ,
1, 1, 1, 1, 1, 1, 1, 1, 1, 1, 1, 1 ,
1, 1, 1, 1, 1, 1, 1, 1, 1, 1, 1, 1 ,
1, 1, 1, 1, 1, 1, 1, 1, 1, 1, 1, 1 ,
1, 1, 1, 1, 1, 1, 1, 1, 1, 1, 1, 1 ,
1, 1, 1, 1, 1, 1, 1, 1, 1, 1, 1, 1 ,
1, 1, 1, 1, 1, 1, 1, 1, 1, 1, 1, 1 ,
1, 1, 1, 1, 1, 1, 1, 1, 1, 1, 1, 1 ,
1, 1, 1, 1, 1, 1, 1, 1, 1, 1, 1, 1 ,
1, 1, 1, 1, 1, 1, 1, 1, 1, 1, 1, 1 ,
1, 1, 1, 1, 1, 1, 1, 1, 1, 1, 1, 1 ,
1, 1, 1, 1, 1, 1, 1, 1, 1, 1, 1, 1 ,
1, 1, 1, 1, 1, 1, 1, 1, 1, 1, 1, 1 ,
1, 1, 1, 1, 1, 1, 1, 1, 1, 1, 1, 1 ,
1, 1, 1, 1, 1, 1, 1, 1, 1, 1, 1, 1 ,
1, 1, 1, 1, 1, 1, 1, 1, 1, 1, 1, 1 ,
1, 1, 1, 1, 1, 1, 1, 1, 1, 1, 1, 1 ,
1, 1, 1, 1, 1, 1, 1, 1, 1, 1, 1, 1 ,
1, 1, 1, 1, 1, 1, 1, 1, 1, 1, 1, 1 ,
1, 1, 1, 1, 1, 1, 1, 1, 1, 1, 1, 1 ,
1, 1, 1, 1, 1, 1, 1, 1, 1, 1, 1, 1 ,
1, 1, 1, 1, 1, 1, 1, 1, 1, 1, 1, 1 ,
1, 1, 1, 1, 1, 1, 1, 1, 1, 1, 1, 1 ,
1, 1, 1, 1, 1, 1, 1, 1, 1, 1, 1, 1 ,
1, 1, 1, 1, 1, 1, 1, 1, 1, 1, 1, 1 ,
1, 1, 1, 1, 1, 1, 1, 1, 1, 1, 1, 1 ,
1, 1, 1, 1, 1, 1, 1, 1, 1, 1, 1, 1 ,
1, 1, 1, 1, 1, 1, 1, 1, 1, 1, 1, 1 ,
1, 1, 1, 1, 1, 1, 1, 1, 1, 1, 1, 1 ,
1, 1, 1, 1, 1, 1, 1, 1, 1, 1, 1, 1 ,
1, 1, 1, 1, 1, 1, 1, 1, 1, 1, 1, 1 ,
1, 1, 1, 1, 1, 1, 1, 1, 1, 1, 1, 1 ,
1, 1, 1, 1, 1, 1, 1, 1, 1, 1, 1, 1 ,
1, 1, 1, 1, 1, 1, 1, 1, 1, 1, 1, 1 ,
1, 1, 1, 1, 1, 1, 1, 1, 1, 1, 1, 1 ,
1, 1, 1, 1, 1, 1, 1, 1, 1, 1, 1, 1 ,
1, 1, 1, 1, 1, 1, 1, 1, 1, 1, 1, 1 ,
1, 1, 1, 1, 1, 1, 1, 1, 1, 1, 1, 1 ,
1, 1, 1, 1, 1, 1, 1, 1, 1, 1, 1, 1 ,
1, 1, 1, 1, 1, 1, 1, 1, 1, 1, 1, 1 ,
1, 1, 1, 1, 1, 1, 1, 1, 1, 1, 1, 1 ,
1, 1, 1, 1, 1, 1, 1, 1, 1, 1, 1, 1 ,
1, 1, 1, 1, 1, 1, 1, 1, 1, 1, 1, 1 ,
1, 1, 1, 1, 1, 1, 1, 1, 1, 1, 1, 1 ,
1, 1, 1, 1, 1, 1, 1, 1, 1, 1, 1, 1 ,
1, 1, 1, 1, 1, 1, 1, 1, 1, 1, 1, 1 ,
1, 1, 1, 1, 1, 1, 1, 1, 1, 1, 1, 1 ,
1, 1, 1, 1, 1, 1, 1, 1, 1, 1, 1, 1 ,
1, 1, 1, 1, 1, 1, 1, 1, 1, 1, 1, 1 ,
1, 1, 1, 1, 1, 1, 1, 1, 1, 1, 1, 1 ,
1, 1, 1, 1, 1, 1, 1, 1, 1, 1, 1, 1 ,
1, 1, 1, 1, 1, 1, 1, 1, 1, 1, 1, 1 ,
1, 1, 1, 1, 1, 1, 1, 1, 1, 1, 1, 1 ,
1, 1, 1, 1, 1, 1, 1, 1, 1, 1, 1, 1 ,
1, 1, 1, 1, 1, 1, 1, 1, 1, 1, 1, 1 ,
1, 1, 1, 1, 1, 1, 1, 1, 1, 1, 1, 1 ,
1, 1, 1, 1, 1, 1, 1, 1, 1, 1, 1, 1 ,
1, 1, 1, 1, 1, 1, 1, 1, 1, 1, 1, 1 ,
1, 1, 1, 1, 1, 1, 1, 1, 1, 1, 1, 1 ,
1, 1, 1, 1, 1, 1, 1, 1, 1, 1, 1, 1 ,
1, 1, 1, 1, 1, 1, 1, 1, 1, 1, 1, 1 ,
1, 1, 1, 1, 1, 1, 1, 1, 1, 1, 1, 1 ,
1, 1, 1, 1, 1, 1, 1, 1, 1, 1, 1, 1 ,
1, 1, 1, 1, 1, 1, 1, 1, 1, 1, 1, 1 ,
1, 1, 1, 1, 1, 1, 1, 1, 1, 1, 1, 1 ,
1, 1, 1, 1, 1, 1, 1, 1, 1, 1, 1, 1 ,
1, 1, 1, 1, 1, 1, 1, 1, 1, 1, 1, 1 ,
1, 1, 1, 1, 1, 1, 1, 1, 1, 1, 1, 1]);

MaxPosHosp =
 array3d(1..Hospitals, 1..Disciplines, 1..Horizon,[
3, 3, 3, 3, 3, 3, 3, 3, 3, 3, 3, 3 ,
3, 3, 3, 3, 3, 3, 3, 3, 3, 3, 3, 3 ,
2, 2, 2, 2, 2, 2, 2, 2, 2, 2, 2, 2 ,
5, 5, 5, 5, 5, 5, 5, 5, 5, 5, 5, 5 ,
5, 5, 5, 5, 5, 5, 5, 5, 5, 5, 5, 5 ,
3, 3, 3, 3, 3, 3, 3, 3, 3, 3, 3, 3 ,
3, 3, 3, 3, 3, 3, 3, 3, 3, 3, 3, 3 ,
2, 2, 2, 2, 2, 2, 2, 2, 2, 2, 2, 2 ,
3, 3, 3, 3, 3, 3, 3, 3, 3, 3, 3, 3 ,
2, 2, 2, 2, 2, 2, 2, 2, 2, 2, 2, 2 ,
3, 3, 3, 3, 3, 3, 3, 3, 3, 3, 3, 3 ,
5, 5, 5, 5, 5, 5, 5, 5, 5, 5, 5, 5 ,
2, 2, 2, 2, 2, 2, 2, 2, 2, 2, 2, 2 ,
5, 5, 5, 5, 5, 5, 5, 5, 5, 5, 5, 5 ,
2, 2, 2, 2, 2, 2, 2, 2, 2, 2, 2, 2 ,
5, 5, 5, 5, 5, 5, 5, 5, 5, 5, 5, 5 ,
2, 2, 2, 2, 2, 2, 2, 2, 2, 2, 2, 2 ,
4, 4, 4, 4, 4, 4, 4, 4, 4, 4, 4, 4 ,
5, 5, 5, 5, 5, 5, 5, 5, 5, 5, 5, 5 ,
4, 4, 4, 4, 4, 4, 4, 4, 4, 4, 4, 4 ,
2, 2, 2, 2, 2, 2, 2, 2, 2, 2, 2, 2 ,
5, 5, 5, 5, 5, 5, 5, 5, 5, 5, 5, 5 ,
4, 4, 4, 4, 4, 4, 4, 4, 4, 4, 4, 4 ,
5, 5, 5, 5, 5, 5, 5, 5, 5, 5, 5, 5 ,
2, 2, 2, 2, 2, 2, 2, 2, 2, 2, 2, 2 ,
5, 5, 5, 5, 5, 5, 5, 5, 5, 5, 5, 5 ,
4, 4, 4, 4, 4, 4, 4, 4, 4, 4, 4, 4 ,
4, 4, 4, 4, 4, 4, 4, 4, 4, 4, 4, 4 ,
3, 3, 3, 3, 3, 3, 3, 3, 3, 3, 3, 3 ,
2, 2, 2, 2, 2, 2, 2, 2, 2, 2, 2, 2 ,
2, 2, 2, 2, 2, 2, 2, 2, 2, 2, 2, 2 ,
3, 3, 3, 3, 3, 3, 3, 3, 3, 3, 3, 3 ,
4, 4, 4, 4, 4, 4, 4, 4, 4, 4, 4, 4 ,
5, 5, 5, 5, 5, 5, 5, 5, 5, 5, 5, 5 ,
2, 2, 2, 2, 2, 2, 2, 2, 2, 2, 2, 2 ,
5, 5, 5, 5, 5, 5, 5, 5, 5, 5, 5, 5 ,
4, 4, 4, 4, 4, 4, 4, 4, 4, 4, 4, 4 ,
2, 2, 2, 2, 2, 2, 2, 2, 2, 2, 2, 2 ,
5, 5, 5, 5, 5, 5, 5, 5, 5, 5, 5, 5 ,
2, 2, 2, 2, 2, 2, 2, 2, 2, 2, 2, 2 ,
4, 4, 4, 4, 4, 4, 4, 4, 4, 4, 4, 4 ,
4, 4, 4, 4, 4, 4, 4, 4, 4, 4, 4, 4 ,
3, 3, 3, 3, 3, 3, 3, 3, 3, 3, 3, 3 ,
3, 3, 3, 3, 3, 3, 3, 3, 3, 3, 3, 3 ,
5, 5, 5, 5, 5, 5, 5, 5, 5, 5, 5, 5 ,
2, 2, 2, 2, 2, 2, 2, 2, 2, 2, 2, 2 ,
3, 3, 3, 3, 3, 3, 3, 3, 3, 3, 3, 3 ,
2, 2, 2, 2, 2, 2, 2, 2, 2, 2, 2, 2 ,
2, 2, 2, 2, 2, 2, 2, 2, 2, 2, 2, 2 ,
5, 5, 5, 5, 5, 5, 5, 5, 5, 5, 5, 5 ,
3, 3, 3, 3, 3, 3, 3, 3, 3, 3, 3, 3 ,
3, 3, 3, 3, 3, 3, 3, 3, 3, 3, 3, 3 ,
4, 4, 4, 4, 4, 4, 4, 4, 4, 4, 4, 4 ,
4, 4, 4, 4, 4, 4, 4, 4, 4, 4, 4, 4 ,
3, 3, 3, 3, 3, 3, 3, 3, 3, 3, 3, 3 ,
5, 5, 5, 5, 5, 5, 5, 5, 5, 5, 5, 5 ,
2, 2, 2, 2, 2, 2, 2, 2, 2, 2, 2, 2 ,
2, 2, 2, 2, 2, 2, 2, 2, 2, 2, 2, 2 ,
2, 2, 2, 2, 2, 2, 2, 2, 2, 2, 2, 2 ,
4, 4, 4, 4, 4, 4, 4, 4, 4, 4, 4, 4]);

MinPosHosp =
 array3d(1..Hospitals, 1..Disciplines, 1..Horizon,[
0, 0, 0, 0, 0, 0, 0, 0, 0, 0, 0, 0 ,
0, 0, 0, 0, 0, 0, 0, 0, 0, 0, 0, 0 ,
0, 0, 0, 0, 0, 0, 0, 0, 0, 0, 0, 0 ,
0, 0, 0, 0, 0, 0, 0, 0, 0, 0, 0, 0 ,
0, 0, 0, 0, 0, 0, 0, 0, 0, 0, 0, 0 ,
0, 0, 0, 0, 0, 0, 0, 0, 0, 0, 0, 0 ,
0, 0, 0, 0, 0, 0, 0, 0, 0, 0, 0, 0 ,
0, 0, 0, 0, 0, 0, 0, 0, 0, 0, 0, 0 ,
0, 0, 0, 0, 0, 0, 0, 0, 0, 0, 0, 0 ,
0, 0, 0, 0, 0, 0, 0, 0, 0, 0, 0, 0 ,
0, 0, 0, 0, 0, 0, 0, 0, 0, 0, 0, 0 ,
0, 0, 0, 0, 0, 0, 0, 0, 0, 0, 0, 0 ,
0, 0, 0, 0, 0, 0, 0, 0, 0, 0, 0, 0 ,
0, 0, 0, 0, 0, 0, 0, 0, 0, 0, 0, 0 ,
0, 0, 0, 0, 0, 0, 0, 0, 0, 0, 0, 0 ,
0, 0, 0, 0, 0, 0, 0, 0, 0, 0, 0, 0 ,
0, 0, 0, 0, 0, 0, 0, 0, 0, 0, 0, 0 ,
0, 0, 0, 0, 0, 0, 0, 0, 0, 0, 0, 0 ,
0, 0, 0, 0, 0, 0, 0, 0, 0, 0, 0, 0 ,
0, 0, 0, 0, 0, 0, 0, 0, 0, 0, 0, 0 ,
0, 0, 0, 0, 0, 0, 0, 0, 0, 0, 0, 0 ,
0, 0, 0, 0, 0, 0, 0, 0, 0, 0, 0, 0 ,
0, 0, 0, 0, 0, 0, 0, 0, 0, 0, 0, 0 ,
0, 0, 0, 0, 0, 0, 0, 0, 0, 0, 0, 0 ,
0, 0, 0, 0, 0, 0, 0, 0, 0, 0, 0, 0 ,
0, 0, 0, 0, 0, 0, 0, 0, 0, 0, 0, 0 ,
0, 0, 0, 0, 0, 0, 0, 0, 0, 0, 0, 0 ,
0, 0, 0, 0, 0, 0, 0, 0, 0, 0, 0, 0 ,
0, 0, 0, 0, 0, 0, 0, 0, 0, 0, 0, 0 ,
0, 0, 0, 0, 0, 0, 0, 0, 0, 0, 0, 0 ,
0, 0, 0, 0, 0, 0, 0, 0, 0, 0, 0, 0 ,
0, 0, 0, 0, 0, 0, 0, 0, 0, 0, 0, 0 ,
0, 0, 0, 0, 0, 0, 0, 0, 0, 0, 0, 0 ,
0, 0, 0, 0, 0, 0, 0, 0, 0, 0, 0, 0 ,
0, 0, 0, 0, 0, 0, 0, 0, 0, 0, 0, 0 ,
0, 0, 0, 0, 0, 0, 0, 0, 0, 0, 0, 0 ,
0, 0, 0, 0, 0, 0, 0, 0, 0, 0, 0, 0 ,
0, 0, 0, 0, 0, 0, 0, 0, 0, 0, 0, 0 ,
0, 0, 0, 0, 0, 0, 0, 0, 0, 0, 0, 0 ,
0, 0, 0, 0, 0, 0, 0, 0, 0, 0, 0, 0 ,
0, 0, 0, 0, 0, 0, 0, 0, 0, 0, 0, 0 ,
0, 0, 0, 0, 0, 0, 0, 0, 0, 0, 0, 0 ,
0, 0, 0, 0, 0, 0, 0, 0, 0, 0, 0, 0 ,
0, 0, 0, 0, 0, 0, 0, 0, 0, 0, 0, 0 ,
0, 0, 0, 0, 0, 0, 0, 0, 0, 0, 0, 0 ,
0, 0, 0, 0, 0, 0, 0, 0, 0, 0, 0, 0 ,
0, 0, 0, 0, 0, 0, 0, 0, 0, 0, 0, 0 ,
0, 0, 0, 0, 0, 0, 0, 0, 0, 0, 0, 0 ,
0, 0, 0, 0, 0, 0, 0, 0, 0, 0, 0, 0 ,
0, 0, 0, 0, 0, 0, 0, 0, 0, 0, 0, 0 ,
0, 0, 0, 0, 0, 0, 0, 0, 0, 0, 0, 0 ,
0, 0, 0, 0, 0, 0, 0, 0, 0, 0, 0, 0 ,
0, 0, 0, 0, 0, 0, 0, 0, 0, 0, 0, 0 ,
0, 0, 0, 0, 0, 0, 0, 0, 0, 0, 0, 0 ,
0, 0, 0, 0, 0, 0, 0, 0, 0, 0, 0, 0 ,
0, 0, 0, 0, 0, 0, 0, 0, 0, 0, 0, 0 ,
0, 0, 0, 0, 0, 0, 0, 0, 0, 0, 0, 0 ,
0, 0, 0, 0, 0, 0, 0, 0, 0, 0, 0, 0 ,
0, 0, 0, 0, 0, 0, 0, 0, 0, 0, 0, 0 ,
0, 0, 0, 0, 0, 0, 0, 0, 0, 0, 0, 0]);

%W_disc W_hosp W_change W_wait
WeightPref=[|
1,3,-3,-3 |
1,3,-3,-2 |
2,2,-2,-3 |
3,2,-1,-2 |
2,3,-2,-2 |
1,2,-3,-3 |
2,3,-1,-3 |
2,3,-2,-1 |
2,3,-1,-3 |
1,3,-3,-1 |
3,3,-2,-3 |
1,2,-2,-3 |
1,2,-3,-1 |
3,1,-3,-3 |
2,3,-3,-2 |
1,1,-1,-1 |
3,2,-1,-2 |
3,3,-1,-3 |
1,3,-1,-2 |
2,1,-1,-2 |
2,2,-2,-2 |
1,1,-3,-2 |
3,1,-3,-2 |
2,1,-2,-3 |
2,3,-1,-3 |
1,3,-2,-2 |
1,1,-2,-3 |
1,3,-1,-2 |
3,1,-2,-2 |
3,1,-1,-2 |
2,2,-1,-1 |
2,1,-1,-2 |
2,1,-1,-2 |
1,2,-3,-1 |
1,2,-2,-3 |
1,1,-1,-2 |
3,1,-3,-2 |
3,1,-3,-2 |
2,1,-2,-1 |
3,3,-3,-3 |
3,1,-2,-2 |
1,3,-3,-3 |
3,2,-1,-3 |
3,3,-2,-2 |
3,1,-3,-1 |
1,1,-3,-3 |
3,1,-3,-2 |
1,1,-1,-1 |
3,3,-1,-1 |
1,2,-2,-1 |
1,2,-1,-2 |
3,1,-3,-3 |
1,1,-1,-2 |
2,3,-3,-2 |
2,3,-3,-2 |
1,3,-1,-3 |
2,1,-3,-1 |
1,1,-1,-2 |
1,2,-1,-2 |
1,1,-1,-3 |
3,2,-2,-3 |
1,3,-2,-3 |
1,1,-1,-3 |
2,1,-3,-1 |
2,1,-2,-1 |
1,3,-3,-3 |
1,1,-2,-1 |
1,3,-2,-2 |
2,2,-3,-3 |
1,2,-2,-3 |
2,1,-3,-2 |
1,1,-1,-1 |
3,1,-2,-1 |
3,3,-1,-1 |
3,2,-2,-1 |
3,2,-1,-2 |
2,3,-3,-2 |
3,3,-3,-2 |
2,3,-1,-1 |
2,2,-3,-1 |];

PrefStudDisc =[|
3, 1, 3, 3, 2, 1, 2, 1, 2, 2, 1, 2 |
3, 3, 3, 2, 1, 1, 3, 1, 2, 3, 3, 1 |
3, 3, 3, 1, 3, 3, 1, 3, 2, 2, 3, 3 |
2, 3, 2, 3, 3, 3, 3, 3, 1, 2, 3, 1 |
3, 2, 1, 2, 2, 3, 1, 3, 1, 3, 3, 3 |
3, 1, 3, 3, 2, 2, 2, 3, 2, 1, 1, 1 |
3, 2, 3, 1, 1, 3, 1, 1, 3, 1, 3, 1 |
2, 3, 1, 2, 1, 3, 3, 3, 2, 3, 3, 3 |
3, 3, 3, 3, 1, 3, 1, 2, 2, 2, 2, 2 |
3, 1, 2, 2, 2, 1, 1, 1, 3, 2, 3, 2 |
2, 2, 1, 3, 1, 1, 2, 2, 1, 3, 1, 1 |
2, 3, 1, 2, 1, 3, 1, 2, 2, 2, 2, 2 |
3, 1, 3, 2, 1, 3, 2, 3, 2, 1, 2, 1 |
3, 3, 3, 2, 2, 2, 3, 2, 1, 3, 1, 2 |
1, 3, 1, 1, 2, 1, 1, 3, 3, 2, 3, 3 |
3, 3, 1, 2, 2, 1, 1, 2, 2, 1, 2, 3 |
2, 2, 2, 1, 3, 2, 3, 1, 3, 3, 3, 1 |
1, 3, 2, 1, 2, 1, 3, 2, 1, 3, 3, 3 |
2, 2, 2, 3, 2, 2, 2, 3, 2, 2, 3, 2 |
3, 3, 1, 2, 1, 1, 3, 2, 1, 2, 3, 1 |
1, 1, 2, 2, 2, 1, 2, 3, 1, 2, 3, 2 |
2, 2, 1, 3, 1, 3, 1, 2, 1, 3, 1, 2 |
2, 3, 3, 3, 1, 1, 1, 3, 1, 3, 3, 2 |
2, 3, 1, 1, 1, 3, 1, 2, 3, 2, 3, 3 |
2, 3, 3, 3, 2, 1, 3, 3, 1, 1, 2, 3 |
3, 1, 1, 1, 1, 2, 2, 3, 2, 3, 2, 1 |
2, 1, 1, 3, 1, 1, 1, 1, 3, 1, 3, 2 |
1, 2, 3, 2, 2, 2, 2, 1, 2, 2, 1, 2 |
3, 1, 1, 1, 1, 1, 1, 1, 2, 3, 3, 1 |
1, 3, 1, 1, 3, 1, 2, 3, 3, 2, 1, 3 |
2, 1, 1, 3, 2, 1, 2, 3, 2, 2, 3, 3 |
2, 3, 3, 1, 2, 3, 3, 3, 2, 3, 2, 2 |
3, 2, 2, 3, 3, 1, 2, 1, 3, 2, 1, 2 |
3, 1, 2, 2, 3, 1, 1, 3, 2, 1, 1, 3 |
2, 3, 3, 2, 1, 1, 1, 3, 1, 1, 1, 2 |
2, 3, 1, 1, 2, 2, 2, 2, 1, 2, 2, 1 |
2, 1, 3, 1, 3, 3, 2, 2, 3, 3, 1, 2 |
1, 2, 3, 1, 2, 3, 3, 3, 2, 2, 2, 3 |
1, 2, 1, 2, 2, 3, 1, 2, 1, 1, 3, 2 |
3, 1, 2, 2, 2, 3, 1, 3, 2, 1, 3, 3 |
3, 2, 1, 3, 1, 2, 3, 2, 2, 2, 2, 1 |
2, 3, 1, 2, 3, 1, 1, 1, 1, 1, 2, 2 |
2, 2, 3, 3, 1, 1, 3, 1, 2, 1, 1, 3 |
2, 2, 3, 1, 3, 3, 2, 2, 2, 2, 2, 1 |
3, 1, 3, 1, 1, 1, 1, 2, 2, 2, 3, 1 |
1, 1, 3, 1, 3, 3, 2, 3, 1, 3, 2, 2 |
3, 1, 1, 2, 3, 1, 2, 3, 1, 2, 2, 1 |
1, 2, 3, 2, 1, 2, 3, 3, 3, 1, 1, 2 |
3, 3, 1, 3, 3, 3, 3, 2, 1, 2, 3, 1 |
3, 1, 1, 3, 2, 3, 3, 3, 3, 3, 1, 1 |
2, 2, 1, 2, 3, 3, 2, 3, 1, 1, 3, 2 |
1, 1, 3, 3, 2, 2, 1, 2, 1, 3, 2, 1 |
3, 2, 2, 3, 3, 3, 1, 1, 3, 2, 2, 1 |
2, 1, 2, 3, 3, 1, 2, 2, 3, 3, 1, 2 |
1, 2, 2, 2, 1, 1, 3, 3, 1, 1, 2, 2 |
2, 3, 3, 2, 1, 1, 2, 2, 3, 2, 1, 3 |
3, 1, 1, 2, 3, 3, 1, 1, 3, 1, 2, 2 |
3, 2, 2, 3, 3, 3, 2, 3, 1, 3, 3, 1 |
1, 3, 2, 3, 2, 2, 3, 2, 3, 1, 1, 3 |
1, 2, 1, 2, 2, 1, 1, 2, 3, 2, 3, 2 |
2, 3, 3, 3, 2, 3, 2, 3, 3, 3, 3, 3 |
1, 1, 2, 1, 2, 1, 2, 2, 2, 3, 2, 2 |
3, 1, 1, 1, 1, 3, 2, 2, 2, 2, 3, 1 |
1, 3, 3, 2, 1, 2, 1, 3, 2, 1, 2, 1 |
2, 2, 1, 1, 2, 3, 3, 1, 2, 2, 3, 2 |
1, 2, 1, 3, 2, 1, 3, 2, 1, 1, 1, 1 |
2, 1, 1, 3, 3, 1, 3, 2, 3, 1, 3, 2 |
2, 2, 2, 2, 3, 2, 2, 1, 2, 1, 2, 2 |
1, 3, 3, 1, 3, 3, 2, 1, 3, 2, 3, 1 |
1, 1, 2, 2, 3, 1, 3, 2, 1, 2, 1, 2 |
2, 2, 1, 2, 1, 3, 3, 1, 1, 2, 3, 3 |
2, 3, 1, 1, 3, 2, 2, 1, 1, 1, 3, 3 |
3, 3, 3, 1, 1, 2, 2, 1, 2, 1, 2, 3 |
1, 2, 2, 1, 1, 2, 3, 3, 2, 1, 3, 3 |
1, 2, 3, 3, 1, 3, 3, 1, 3, 3, 3, 1 |
3, 3, 2, 3, 1, 2, 1, 2, 2, 2, 1, 3 |
3, 3, 2, 1, 2, 3, 2, 1, 2, 1, 1, 3 |
2, 2, 1, 3, 1, 1, 1, 1, 3, 3, 1, 2 |
3, 1, 1, 3, 3, 3, 3, 3, 3, 1, 1, 3 |
2, 3, 2, 2, 2, 2, 2, 1, 1, 2, 1, 1 |];

PrefStudHosp =[|
2, 1, 2, 1, 2 |
3, 1, 3, 3, 2 |
2, 2, 1, 1, 2 |
3, 1, 1, 2, 3 |
2, 3, 2, 3, 1 |
3, 1, 1, 2, 3 |
1, 2, 2, 1, 3 |
3, 3, 3, 2, 1 |
2, 2, 2, 1, 1 |
3, 1, 2, 2, 1 |
2, 3, 3, 2, 3 |
2, 2, 3, 3, 3 |
3, 3, 2, 3, 3 |
1, 3, 2, 3, 3 |
3, 3, 2, 2, 1 |
3, 1, 1, 3, 1 |
2, 1, 1, 3, 3 |
1, 3, 3, 1, 1 |
2, 2, 2, 1, 1 |
2, 1, 2, 3, 2 |
1, 2, 1, 1, 2 |
1, 3, 3, 3, 2 |
1, 1, 1, 3, 1 |
3, 2, 2, 3, 2 |
3, 2, 1, 3, 3 |
2, 1, 3, 3, 1 |
1, 1, 1, 3, 1 |
3, 2, 3, 2, 1 |
3, 1, 2, 1, 2 |
2, 1, 1, 2, 3 |
3, 3, 2, 1, 1 |
2, 3, 1, 1, 3 |
3, 1, 1, 2, 1 |
1, 1, 1, 1, 3 |
1, 3, 2, 3, 1 |
3, 3, 3, 3, 2 |
3, 2, 3, 3, 2 |
2, 3, 2, 3, 3 |
3, 2, 3, 1, 3 |
1, 3, 2, 3, 2 |
3, 1, 2, 3, 1 |
1, 2, 2, 2, 1 |
2, 2, 3, 3, 3 |
2, 1, 3, 1, 3 |
2, 3, 2, 2, 1 |
3, 2, 1, 3, 3 |
1, 1, 2, 2, 2 |
1, 1, 2, 3, 1 |
3, 3, 2, 1, 1 |
2, 1, 1, 3, 1 |
1, 2, 2, 2, 2 |
3, 3, 3, 3, 1 |
1, 2, 1, 1, 1 |
2, 2, 2, 3, 3 |
2, 1, 1, 1, 2 |
2, 3, 3, 1, 1 |
1, 2, 1, 3, 2 |
1, 3, 1, 2, 3 |
1, 1, 1, 3, 3 |
2, 3, 3, 2, 3 |
1, 1, 3, 2, 3 |
2, 3, 1, 2, 3 |
3, 3, 3, 1, 1 |
3, 3, 2, 2, 3 |
2, 2, 2, 1, 1 |
1, 3, 1, 3, 1 |
2, 2, 1, 3, 2 |
3, 1, 2, 1, 1 |
2, 1, 3, 1, 1 |
2, 1, 1, 2, 2 |
3, 2, 2, 1, 2 |
1, 3, 1, 1, 1 |
1, 1, 2, 3, 1 |
1, 3, 1, 2, 3 |
1, 2, 1, 1, 2 |
3, 1, 2, 3, 3 |
3, 1, 3, 2, 2 |
3, 3, 2, 3, 3 |
2, 3, 2, 3, 3 |
1, 2, 3, 2, 1 |];

ManPref=[1,1,1,1,1,1,1,1,1,1,1,1];

%% Instance features:
%Scalars :80 , 12 , 1 , 12 , 5 , 1
%Occupancy: 0.271346
%Excess: 0
%Busyness: 0.688542
%Density: 0.106061
%Depth: 2
